DATASET = "thpack2";
INSTANCE = "016";

WIDTH = 233;
HEIGHT = 220;
LENGTH = 587;

NO_OF_SHAPES = 5;
size = [|
  43,40,39 |
  97,76,40 |
  67,63,47 |
  98,57,38 |
  73,71,27 |
|];

verticality = [|
  1,1,1 |
  0,1,1 |
  1,1,1 |
  0,1,1 |
  0,0,1 |
|];

box_count = [
  30,
  30,
  28,
  40,
  35,
];
